WARNING: for repeatability, setting FPU to use double precision
============================[ Problem Statistics ]=============================
|                                                                             |
|  Number of variables:           100                                         |
|  Number of clauses:             449                                         |
|  Parse time:                   0.00 s                                       |
|  Eliminated clauses:           0.00 Mb                                      |
|  Simplification time:          0.00 s                                       |
|                                                                             |
============================[ Search Statistics ]==============================
| Conflicts |          ORIGINAL         |          LEARNT          | Progress |
|           |    Vars  Clauses Literals |    Limit  Clauses Lit/Cl |          |
===============================================================================
|       100 |      98      447     1352 |      163      100      6 |  0.020 % |
|       250 |      98      447     1352 |      180      165      5 |  0.010 % |
===============================================================================
restarts              : 3
conflicts             : 313            (110172 /sec)
decisions             : 378            (0.00 % random) (133052 /sec)
propagations          : 7287           (2564942 /sec)
conflict literals     : 1714           (24.33 % deleted)
Memory used           : 13.00 MB
CPU time              : 0.002841 s

SATISFIABLE
